
Gurobi 9.1.0 (win64) logging started Sat Jan  2 09:23:12 2021

Changed value of parameter LogFile to logs/iteration19
   Prev:   Default: 
Gurobi Optimizer version 9.1.0 build v9.1.0rc0 (win64)
Thread count: 4 physical cores, 8 logical processors, using up to 8 threads
Optimize a model with 136 rows, 1036 columns and 3828 nonzeros
Model fingerprint: 0x0534a181
Coefficient statistics:
  Matrix range     [1e+00, 1e+00]
  Objective range  [8e+02, 3e+03]
  Bounds range     [0e+00, 0e+00]
  RHS range        [1e+00, 1e+00]
Presolve removed 4 rows and 98 columns
Presolve time: 0.00s
Presolved: 132 rows, 938 columns, 3729 nonzeros

Iteration    Objective       Primal Inf.    Dual Inf.      Time
       0    4.4804167e+03   1.320000e+02   0.000000e+00      0s
     432    7.2725667e+04   0.000000e+00   0.000000e+00      0s

Solved in 432 iterations and 0.01 seconds
Optimal objective  7.272566667e+04

Solutionx[72] 1.000000 
x[118] 1.000000 
x[132] 1.000000 
x[566] 1.000000 
x[728] 1.000000 
x[1739] 1.000000 
x[1772] 1.000000 
x[26594] 0.500000 
x[10828] 0.500000 
x[30408] 1.000000 
x[2614] 1.000000 
x[12864] 1.000000 
x[26433] 0.500000 
x[30871] 0.500000 
x[5984] 1.000000 
x[6136] 1.000000 
x[20827] 0.500000 
x[7217] 0.500000 
x[20407] 1.000000 
x[2609] 1.000000 
x[18512] 1.000000 
x[19311] 1.000000 
x[29820] 1.000000 
x[31163] 1.000000 
x[2839] 1.000000 
x[17149] 1.000000 
x[20087] 0.500000 
x[4645] 1.000000 
x[31815] 1.000000 
x[26463] 1.000000 
x[29140] 0.500000 
x[15835] 0.500000 
x[19558] 0.500000 
x[21353] 1.000000 
x[10910] 0.500000 
x[832] 1.000000 
x[19386] 0.500000 
x[25572] 0.500000 
x[15923] 1.000000 
x[18849] 1.000000 
x[9076] 1.000000 
x[7093] 1.000000 
x[5568] 1.000000 
x[7598] 0.500000 
x[20228] 0.500000 
x[188] 1.000000 
x[19015] 1.000000 
x[15515] 1.000000 
x[23317] 1.000000 
x[32331] 1.000000 
